NAME          DCAP_3_4_2_500_SS345
ROWS
 N  OBJ
 L  CON1
 L  CON2
 L  CON3
 L  CON4
 L  CON5
 L  CON6
 L  CON7
 L  CON8
 L  CON9
 L  CON10
 L  CON11
 L  CON12
 E  CON13
 E  CON14
 E  CON15
 E  CON16
 E  CON17
 E  CON18
 E  CON19
 E  CON20
COLUMNS
    x[1,1]    OBJ       6.180167      CON1      1.000000    
    x[1,1]    CON7      -1.000000     CON8      -1.000000   
    x[1,2]    OBJ       5.039546      CON2      1.000000    
    x[1,2]    CON8      -1.000000   
    x[2,1]    OBJ       6.732585      CON3      1.000000    
    x[2,1]    CON9      -1.000000     CON10     -1.000000   
    x[2,2]    OBJ       7.443064      CON4      1.000000    
    x[2,2]    CON10     -1.000000   
    x[3,1]    OBJ       6.563535      CON5      1.000000    
    x[3,1]    CON11     -1.000000     CON12     -1.000000   
    x[3,2]    OBJ       6.054841      CON6      1.000000    
    x[3,2]    CON12     -1.000000   
    MARKER    'MARKER'                'INTORG'
    u[1,1]    OBJ       48.076654     CON1      -1.000000   
    u[1,2]    OBJ       49.466655     CON2      -1.000000   
    u[2,1]    OBJ       49.996186     CON3      -1.000000   
    u[2,2]    OBJ       32.230043     CON4      -1.000000   
    u[3,1]    OBJ       20.066487     CON5      -1.000000   
    u[3,2]    OBJ       27.484319     CON6      -1.000000   
    y[1,1,1]  OBJ       9.993379      CON7      0.622051    
    y[1,1,1]  CON13     1.000000    
    y[1,1,2]  OBJ       7.150502      CON8      0.988549    
    y[1,1,2]  CON14     1.000000    
    y[1,2,1]  OBJ       9.064080      CON7      0.960742    
    y[1,2,1]  CON15     1.000000    
    y[1,2,2]  OBJ       6.200471      CON8      1.498856    
    y[1,2,2]  CON16     1.000000    
    y[1,3,1]  OBJ       5.533805      CON7      0.979548    
    y[1,3,1]  CON17     1.000000    
    y[1,3,2]  OBJ       5.794109      CON8      1.017173    
    y[1,3,2]  CON18     1.000000    
    y[1,4,1]  OBJ       6.650553      CON7      1.131013    
    y[1,4,1]  CON19     1.000000    
    y[1,4,2]  OBJ       6.014554      CON8      1.268889    
    y[1,4,2]  CON20     1.000000    
    y[2,1,1]  OBJ       6.377858      CON9      0.622051    
    y[2,1,1]  CON13     1.000000    
    y[2,1,2]  OBJ       8.416135      CON10     0.988549    
    y[2,1,2]  CON14     1.000000    
    y[2,2,1]  OBJ       6.304710      CON9      0.960742    
    y[2,2,1]  CON15     1.000000    
    y[2,2,2]  OBJ       9.614944      CON10     1.498856    
    y[2,2,2]  CON16     1.000000    
    y[2,3,1]  OBJ       8.959359      CON9      0.979548    
    y[2,3,1]  CON17     1.000000    
    y[2,3,2]  OBJ       9.669623      CON10     1.017173    
    y[2,3,2]  CON18     1.000000    
    y[2,4,1]  OBJ       5.462149      CON9      1.131013    
    y[2,4,1]  CON19     1.000000    
    y[2,4,2]  OBJ       7.899390      CON10     1.268889    
    y[2,4,2]  CON20     1.000000    
    y[3,1,1]  OBJ       7.844936      CON11     0.622051    
    y[3,1,1]  CON13     1.000000    
    y[3,1,2]  OBJ       8.208526      CON12     0.988549    
    y[3,1,2]  CON14     1.000000    
    y[3,2,1]  OBJ       8.832082      CON11     0.960742    
    y[3,2,1]  CON15     1.000000    
    y[3,2,2]  OBJ       8.745239      CON12     1.498856    
    y[3,2,2]  CON16     1.000000    
    y[3,3,1]  OBJ       7.667419      CON11     0.979548    
    y[3,3,1]  CON17     1.000000    
    y[3,3,2]  OBJ       9.870364      CON12     1.017173    
    y[3,3,2]  CON18     1.000000    
    y[3,4,1]  OBJ       8.451061      CON11     1.131013    
    y[3,4,1]  CON19     1.000000    
    y[3,4,2]  OBJ       7.018011      CON12     1.268889    
    y[3,4,2]  CON20     1.000000    
    z[1,1]    OBJ       604.827164    CON13     1.000000    
    z[1,2]    OBJ       538.631272    CON14     1.000000    
    z[2,1]    OBJ       758.811563    CON15     1.000000    
    z[2,2]    OBJ       623.344593    CON16     1.000000    
    z[3,1]    OBJ       884.020406    CON17     1.000000    
    z[3,2]    OBJ       592.080481    CON18     1.000000    
    z[4,1]    OBJ       852.493288    CON19     1.000000    
    z[4,2]    OBJ       578.216939    CON20     1.000000    
    MARKER    'MARKER'                 'INTEND'
RHS
    RHS       CON1      -0.000000     CON2      -0.000000   
    RHS       CON3      -0.000000     CON4      -0.000000   
    RHS       CON5      -0.000000     CON6      -0.000000   
    RHS       CON7      -0.000000     CON8      -0.000000   
    RHS       CON9      -0.000000     CON10     -0.000000   
    RHS       CON11     -0.000000     CON12     -0.000000   
    RHS       CON13     1.000000      CON14     1.000000    
    RHS       CON15     1.000000      CON16     1.000000    
    RHS       CON17     1.000000      CON18     1.000000    
    RHS       CON19     1.000000      CON20     1.000000    
BOUNDS
 BV BOUND     u[1,1]  
 BV BOUND     u[1,2]  
 BV BOUND     u[2,1]  
 BV BOUND     u[2,2]  
 BV BOUND     u[3,1]  
 BV BOUND     u[3,2]  
 BV BOUND     y[1,1,1]
 BV BOUND     y[1,1,2]
 BV BOUND     y[1,2,1]
 BV BOUND     y[1,2,2]
 BV BOUND     y[1,3,1]
 BV BOUND     y[1,3,2]
 BV BOUND     y[1,4,1]
 BV BOUND     y[1,4,2]
 BV BOUND     y[2,1,1]
 BV BOUND     y[2,1,2]
 BV BOUND     y[2,2,1]
 BV BOUND     y[2,2,2]
 BV BOUND     y[2,3,1]
 BV BOUND     y[2,3,2]
 BV BOUND     y[2,4,1]
 BV BOUND     y[2,4,2]
 BV BOUND     y[3,1,1]
 BV BOUND     y[3,1,2]
 BV BOUND     y[3,2,1]
 BV BOUND     y[3,2,2]
 BV BOUND     y[3,3,1]
 BV BOUND     y[3,3,2]
 BV BOUND     y[3,4,1]
 BV BOUND     y[3,4,2]
 BV BOUND     z[1,1]  
 BV BOUND     z[1,2]  
 BV BOUND     z[2,1]  
 BV BOUND     z[2,2]  
 BV BOUND     z[3,1]  
 BV BOUND     z[3,2]  
 BV BOUND     z[4,1]  
 BV BOUND     z[4,2]  
ENDATA
